language ESSENCE' 1.0

letting jobs = 102
letting horizon = 823
letting resourcesRenew = 2
letting resourcesNonrenew = 2
letting resourceLimits = [55, 51, 470, 485]
letting successors = [[2, 3, 4, 5, 6, 7, 8, 9, 10, 11, 12, 13, 15, 16, 18, 19, 20, 21, 22, 23, 25, 27, 28, 30, 31, 35, 42, 51], [73, 71, 70, 68, 64, 60, 56, 54, 49, 48, 36, 34, 32, 29, 14], [74, 73, 72, 71, 70, 63, 60, 59, 54, 53, 48, 47, 46, 45, 43, 40, 37, 36, 34], [101, 100, 96, 95, 94, 72, 70, 69, 64, 60, 57, 55, 49, 43, 40, 33, 17], [98, 96, 94, 91, 70, 63, 60, 59, 58, 57, 56, 55, 54, 48, 44, 32, 26], [101, 95, 88, 74, 72, 70, 69, 67, 63, 55, 46, 43, 41, 24], [98, 96, 94, 92, 91, 88, 74, 73, 72, 71, 69, 64, 63, 54, 53, 52, 47, 44, 43], [101, 100, 97, 94, 92, 90, 73, 70, 69, 64, 62, 60, 54, 53, 45, 39, 38], [101, 97, 96, 94, 57, 47, 45, 38, 26], [101, 98, 97, 95, 92, 91, 87, 72, 71, 69, 68, 62, 61, 60, 57, 44, 36], [97, 95, 94, 90, 88, 70, 67, 62, 60, 59, 58, 55, 54, 50, 39], [94, 93, 91, 90, 88, 86, 84, 70, 69, 68, 63, 59, 55, 54, 53, 48, 45], [97, 96, 87, 82, 71, 69, 68, 67, 66, 56, 54, 44, 37], [100, 98, 97, 96, 95, 94, 92, 91, 89, 88, 67, 66, 55, 44, 43], [98, 96, 93, 92, 91, 88, 87, 86, 72, 67, 66, 59, 47, 44], [92, 91, 90, 87, 82, 80, 72, 71, 68, 63, 62, 56, 55, 50], [98, 92, 91, 90, 88, 87, 85, 83, 82, 79, 71, 68, 67, 66, 62, 54], [101, 100, 98, 92, 90, 87, 85, 83, 82, 81, 80, 79, 76, 74, 70, 68, 62, 54], [101, 100, 99, 97, 96, 94, 87, 86, 85, 84, 83, 82, 81, 79, 69, 67, 66, 54], [100, 95, 92, 91, 90, 88, 87, 86, 85, 84, 81, 70, 66, 59, 55, 54], [101, 100, 99, 94, 93, 91, 88, 87, 84, 82, 72, 68, 63, 61, 45], [101, 96, 94, 92, 87, 84, 82, 70, 68, 67, 66, 55, 54, 44], [101, 94, 93, 91, 88, 85, 83, 80, 71, 69, 68, 61, 43], [99, 98, 96, 94, 93, 90, 89, 87, 85, 83, 80, 79, 68, 62, 61, 50], [97, 96, 93, 92, 91, 90, 88, 68, 67, 62, 56, 44], [99, 93, 89, 85, 83, 69, 68, 67, 66, 61, 43], [100, 99, 98, 97, 93, 91, 89, 85, 84, 83, 82, 81, 70, 67, 66, 63, 61], [101, 99, 91, 89, 87, 85, 82, 76, 70, 68, 67, 62, 55], [98, 96, 90, 89, 88, 83, 82, 81, 79, 77, 67, 63, 62, 58], [92, 91, 88, 86, 85, 82, 81, 80, 79, 69, 66, 54], [99, 95, 94, 86, 85, 82, 79, 76, 71, 67, 54], [95, 93, 90, 88, 87, 83, 82, 81, 80, 79, 78, 69, 66, 61], [97, 93, 92, 88, 87, 82, 68, 63, 62, 61], [100, 91, 89, 88, 87, 79, 67, 44], [101, 94, 90, 86, 84, 83, 59, 48], [100, 96, 88, 83, 82, 81, 79, 78, 77, 67, 66, 65], [94, 93, 90, 89, 88, 80, 78, 62, 61], [93, 91, 88, 87, 86, 84, 82, 80, 79, 77, 76, 65], [91, 87, 82, 80, 79, 77, 68, 65, 63], [98, 85, 84, 82, 81, 78, 66, 61], [94, 84, 82, 79, 76, 54], [98, 92, 90, 87, 82, 81, 80, 76, 65], [90, 87, 82, 79, 78, 77, 76, 62], [85, 83, 81, 80, 78, 77, 76, 65], [85, 83, 81, 79, 77, 76, 75, 67], [97, 92, 83, 82, 80, 61], [99, 95, 85, 84, 80, 79, 76, 75], [92, 81, 78, 76, 61], [88, 87, 77, 65, 59], [86, 81, 78, 77, 75, 66], [83, 81, 79, 78, 77, 65], [97, 93, 84, 83, 81, 79], [83, 81, 80, 79, 66], [89, 78, 61], [83, 79, 61], [95, 81, 79, 76], [86, 78, 77, 75], [85, 84, 80, 75], [82, 76, 75], [82, 80, 77], [77, 65], [86, 84], [78, 76], [85, 79], [75], [76], [80], [75], [76], [78], [81], [85], [75], [75], [102], [102], [102], [102], [102], [102], [102], [102], [102], [102], [102], [102], [102], [102], [102], [102], [102], [102], [102], [102], [102], [102], [102], [102], [102], [102], [102], []]
letting durations = [[0], [4, 5, 9], [3, 4, 6], [7, 8, 10], [2, 6, 9], [3, 5, 6], [2, 6, 8], [5, 7, 8], [2, 4, 7], [1, 3, 9], [1, 2, 7], [3, 6, 8], [2, 9, 10], [1, 3, 5], [1, 9, 10], [1, 4, 6], [3, 8, 9], [4, 8, 9], [2, 4, 10], [2, 7, 10], [1, 4, 9], [1, 6, 9], [3, 4, 8], [1, 7, 10], [5, 8, 9], [2, 5, 6], [3, 7, 8], [4, 7, 9], [7, 8, 10], [1, 5, 6], [1, 5, 8], [1, 4, 6], [1, 2, 6], [1, 3, 10], [6, 7, 8], [2, 5, 6], [1, 2, 3], [1, 2, 6], [3, 8, 10], [2, 9, 10], [3, 8, 9], [1, 5, 10], [8, 9, 10], [7, 8, 9], [2, 7, 8], [2, 7, 9], [1, 3, 8], [6, 7, 10], [5, 6, 7], [2, 4, 5], [2, 6, 9], [2, 3, 6], [1, 8, 10], [3, 4, 5], [1, 2, 10], [1, 3, 8], [4, 5, 9], [1, 2, 9], [4, 6, 9], [8, 9, 10], [1, 2, 10], [2, 5, 10], [4, 8, 10], [3, 5, 7], [7, 8, 10], [3, 7, 8], [1, 2, 10], [2, 6, 7], [3, 9, 10], [1, 3, 4], [1, 3, 5], [4, 5, 8], [2, 3, 9], [7, 9, 10], [1, 6, 8], [2, 4, 7], [3, 7, 9], [1, 2, 5], [4, 9, 10], [6, 8, 9], [7, 8, 10], [3, 6, 8], [1, 2, 5], [4, 5, 10], [3, 5, 10], [6, 7, 10], [1, 8, 9], [1, 3, 6], [8, 9, 10], [1, 3, 4], [4, 5, 9], [4, 7, 8], [5, 9, 10], [3, 4, 7], [6, 9, 10], [5, 6, 8], [2, 7, 8], [1, 6, 9], [4, 6, 8], [4, 6, 8], [3, 6, 7], [0]]
letting resourceUsage = [[[0, 0, 0, 0]], [[9, 8, 4, 8], [7, 8, 2, 6], [5, 7, 1, 1]], [[3, 6, 5, 8], [3, 5, 4, 7], [3, 3, 4, 7]], [[7, 7, 5, 6], [5, 7, 5, 6], [1, 7, 1, 6]], [[9, 7, 9, 6], [8, 5, 8, 4], [8, 5, 7, 4]], [[5, 4, 5, 5], [4, 4, 4, 3], [3, 4, 4, 1]], [[6, 9, 6, 6], [2, 8, 4, 5], [2, 8, 4, 4]], [[8, 7, 9, 7], [7, 5, 8, 7], [6, 3, 7, 7]], [[10, 7, 9, 5], [8, 6, 8, 4], [6, 6, 5, 2]], [[7, 8, 4, 3], [5, 7, 4, 2], [2, 7, 3, 1]], [[7, 7, 2, 8], [7, 6, 2, 8], [6, 5, 1, 6]], [[3, 3, 8, 5], [3, 2, 7, 4], [3, 2, 3, 3]], [[1, 4, 2, 8], [1, 3, 2, 7], [1, 3, 2, 6]], [[7, 10, 3, 10], [6, 6, 2, 6], [6, 6, 2, 4]], [[10, 4, 4, 6], [8, 4, 4, 5], [7, 2, 4, 5]], [[8, 5, 8, 5], [7, 5, 8, 2], [7, 5, 8, 1]], [[7, 10, 5, 10], [5, 9, 5, 7], [4, 9, 5, 2]], [[10, 6, 8, 8], [6, 5, 5, 7], [5, 4, 1, 7]], [[6, 6, 5, 9], [6, 5, 3, 9], [5, 4, 2, 9]], [[1, 7, 6, 7], [1, 7, 6, 6], [1, 7, 2, 7]], [[9, 8, 8, 10], [7, 4, 5, 9], [6, 1, 3, 9]], [[7, 7, 4, 6], [6, 3, 4, 4], [6, 3, 2, 3]], [[4, 9, 8, 6], [2, 5, 7, 5], [2, 3, 5, 3]], [[9, 4, 9, 5], [7, 4, 6, 3], [7, 4, 5, 2]], [[8, 9, 6, 5], [4, 8, 6, 4], [3, 8, 6, 3]], [[3, 9, 9, 7], [2, 6, 6, 5], [2, 4, 3, 1]], [[6, 4, 4, 6], [5, 4, 4, 5], [5, 4, 4, 4]], [[10, 8, 7, 4], [9, 6, 4, 3], [9, 5, 3, 2]], [[5, 8, 9, 8], [5, 7, 8, 8], [5, 6, 8, 6]], [[6, 4, 10, 1], [5, 4, 8, 1], [4, 4, 7, 1]], [[8, 4, 4, 4], [5, 3, 2, 4], [3, 3, 2, 4]], [[9, 8, 10, 5], [8, 7, 7, 2], [8, 7, 5, 1]], [[7, 5, 7, 4], [6, 5, 7, 4], [6, 4, 6, 4]], [[8, 5, 1, 5], [6, 4, 1, 3], [5, 2, 1, 3]], [[9, 5, 1, 8], [5, 5, 1, 6], [3, 5, 1, 5]], [[9, 3, 7, 5], [8, 2, 4, 5], [7, 2, 3, 5]], [[4, 8, 6, 8], [2, 8, 6, 6], [2, 7, 5, 4]], [[8, 8, 3, 9], [8, 8, 3, 5], [6, 8, 2, 4]], [[9, 7, 7, 9], [8, 7, 6, 6], [7, 6, 5, 1]], [[8, 10, 5, 4], [7, 8, 3, 4], [7, 8, 2, 3]], [[9, 8, 4, 10], [6, 7, 2, 6], [4, 6, 2, 6]], [[7, 9, 5, 8], [4, 7, 5, 8], [1, 4, 4, 8]], [[5, 7, 7, 5], [4, 5, 4, 3], [4, 4, 1, 3]], [[3, 4, 7, 5], [3, 2, 4, 5], [3, 2, 4, 4]], [[8, 8, 3, 7], [8, 7, 2, 5], [5, 6, 2, 3]], [[7, 10, 8, 7], [6, 10, 4, 6], [6, 10, 4, 5]], [[10, 8, 6, 3], [8, 8, 6, 1], [6, 8, 6, 1]], [[3, 7, 10, 8], [3, 7, 4, 7], [2, 6, 1, 6]], [[5, 8, 8, 7], [4, 6, 3, 5], [3, 4, 3, 2]], [[7, 3, 7, 10], [6, 2, 7, 7], [5, 1, 6, 2]], [[9, 3, 6, 5], [5, 2, 5, 3], [3, 2, 5, 3]], [[7, 4, 4, 3], [4, 2, 4, 3], [2, 2, 3, 3]], [[8, 10, 8, 10], [4, 7, 7, 8], [3, 6, 7, 6]], [[9, 2, 2, 6], [8, 2, 1, 6], [8, 1, 1, 6]], [[1, 1, 10, 9], [1, 1, 9, 6], [1, 1, 9, 4]], [[4, 5, 7, 8], [2, 5, 6, 6], [2, 5, 6, 5]], [[4, 9, 8, 6], [4, 9, 7, 3], [4, 9, 7, 1]], [[5, 5, 9, 9], [4, 5, 8, 7], [4, 4, 8, 6]], [[8, 10, 9, 8], [7, 9, 9, 8], [5, 9, 8, 7]], [[9, 6, 9, 5], [9, 6, 6, 5], [9, 6, 4, 5]], [[7, 8, 7, 7], [6, 7, 7, 6], [6, 7, 5, 5]], [[8, 7, 8, 5], [6, 6, 5, 5], [6, 2, 4, 4]], [[6, 3, 8, 5], [5, 2, 4, 5], [3, 2, 2, 4]], [[6, 6, 6, 6], [3, 6, 6, 5], [1, 6, 3, 1]], [[7, 8, 5, 6], [3, 7, 5, 4], [3, 4, 5, 2]], [[4, 5, 6, 7], [3, 4, 5, 6], [3, 2, 3, 5]], [[4, 6, 6, 8], [3, 6, 5, 6], [3, 6, 4, 5]], [[7, 8, 7, 5], [6, 6, 7, 5], [3, 2, 7, 2]], [[8, 2, 7, 9], [7, 2, 4, 8], [4, 1, 3, 8]], [[6, 4, 10, 8], [6, 4, 8, 7], [5, 4, 6, 5]], [[10, 7, 8, 6], [6, 7, 8, 4], [3, 7, 7, 4]], [[3, 9, 9, 8], [2, 4, 8, 5], [2, 3, 8, 5]], [[7, 5, 3, 9], [6, 5, 3, 8], [3, 5, 3, 8]], [[3, 9, 4, 6], [1, 6, 3, 6], [1, 4, 2, 5]], [[7, 8, 3, 6], [4, 6, 3, 5], [3, 5, 2, 5]], [[5, 8, 3, 8], [2, 7, 1, 6], [1, 6, 1, 4]], [[9, 4, 7, 8], [8, 3, 7, 8], [6, 2, 7, 6]], [[7, 6, 7, 9], [6, 2, 5, 6], [6, 2, 5, 2]], [[6, 9, 6, 7], [4, 7, 6, 6], [4, 7, 5, 5]], [[5, 8, 2, 5], [5, 8, 2, 4], [5, 8, 2, 1]], [[10, 6, 7, 8], [10, 6, 5, 5], [10, 6, 3, 5]], [[6, 5, 7, 5], [6, 5, 6, 3], [6, 4, 6, 2]], [[4, 9, 6, 7], [3, 9, 5, 7], [2, 8, 4, 5]], [[5, 5, 9, 9], [2, 5, 7, 7], [2, 1, 5, 6]], [[4, 4, 5, 4], [3, 3, 5, 3], [3, 3, 5, 2]], [[6, 10, 8, 8], [6, 6, 7, 8], [5, 1, 6, 8]], [[8, 7, 3, 5], [5, 6, 3, 5], [3, 4, 2, 4]], [[9, 5, 9, 9], [9, 4, 9, 4], [9, 2, 9, 4]], [[6, 8, 4, 5], [5, 8, 2, 4], [5, 8, 2, 3]], [[6, 10, 4, 5], [5, 4, 4, 3], [5, 1, 3, 2]], [[5, 10, 8, 7], [3, 6, 8, 6], [2, 4, 7, 6]], [[9, 6, 9, 10], [7, 5, 8, 8], [7, 5, 7, 8]], [[6, 5, 5, 5], [5, 5, 4, 2], [5, 5, 3, 1]], [[4, 7, 3, 3], [4, 4, 2, 3], [4, 1, 2, 3]], [[7, 7, 5, 8], [4, 6, 4, 7], [3, 6, 3, 7]], [[3, 5, 8, 7], [2, 3, 6, 6], [2, 2, 6, 6]], [[9, 9, 7, 8], [8, 7, 7, 6], [7, 4, 7, 5]], [[6, 3, 10, 7], [6, 3, 5, 5], [4, 3, 3, 3]], [[10, 7, 8, 5], [8, 4, 7, 5], [8, 1, 7, 5]], [[10, 9, 8, 7], [9, 8, 4, 6], [9, 8, 2, 6]], [[5, 6, 10, 8], [3, 5, 7, 7], [3, 5, 5, 6]], [[0, 0, 0, 0]]]
